NAME : input200_8.txt .out.tour
COMMENT : Tour for input200_8.txt .tsp (Length 2863.5)
TYPE : TOUR
DIMENSION : 200
TOUR_SECTION
1
60
149
110
170
185
67
43
96
90
193
39
50
161
118
19
128
141
177
44
58
127
47
188
154
137
79
101
179
51
164
180
89
162
86
120
142
119
17
76
169
152
132
57
131
145
2
98
59
3
176
15
173
195
26
166
194
69
64
23
87
24
196
111
9
22
36
29
159
200
107
156
163
25
165
41
168
14
102
74
190
84
140
65
18
115
77
52
112
56
66
129
5
21
114
172
62
80
81
105
83
106
88
11
167
48
147
72
55
95
32
40
191
160
144
157
158
192
61
30
116
136
138
109
148
16
45
71
183
75
126
68
197
103
108
146
92
12
182
94
38
151
49
46
73
134
199
6
139
104
189
93
175
8
54
186
20
123
150
155
100
113
198
135
28
153
171
121
63
35
130
37
124
10
99
125
187
13
174
97
117
70
143
181
27
4
122
133
34
184
33
82
91
53
85
178
78
31
7
42
1
